param TOT_LAYERS := 4;  # Total Number of layers in the ANN
param N_NODES := 2 4 4 1;  # Number of nodes for each layer
param ANN_WEIGTHS :=
                     1   0.96 -0.29 0.42 0.55 -0.03 -0.66 -0.91 0.41
                     2   -0.89 0.0 -0.47 0.54 0.63 -0.99 -0.41 0.42 -0.87 -0.68 0.53 0.52 -0.59 -0.98 -0.44 -0.7
                     3   0.67 0.03 -0.9 -0.48 ;
end;
